;; Mutation-Based Equivalence Benchmark
;; Source:     AutomatArk / instance12846.smt2
;; Mutations:  intersect_max_len_10, intersect_max_len_10
;; Status:     sat
;;
;; Original regex vs mutated regex
;; Equivalence check: unsat ⟺ L(R1) = L(R2)

(set-info :smt-lib-version 2.6)
(set-info :category "mutation")
(set-info :status sat)
(set-logic QF_S)

(declare-const x String)

;; R1: original
;; R2: mutated (intersect_max_len_10, intersect_max_len_10)
(assert
  (str.in_re x
    (re.union (re.inter (re.union (re.++ (re.+ (re.++ (re.union (re.range "a" "z") (re.range "A" "Z") (re.range "0" "9")) (re.opt (re.++ ((_ re.loop 0 61) (re.union (re.range "a" "z") (re.range "A" "Z") (re.range "0" "9") (str.to_re "-"))) (re.union (re.range "a" "z") (re.range "A" "Z") (re.range "0" "9")))) (str.to_re "."))) ((_ re.loop 2 6) (re.union (re.range "a" "z") (re.range "A" "Z"))) (str.to_re "/") ((_ re.loop 2 2) (re.++ (str.to_re "DC=") (re.+ (re.union (str.to_re "'") (re.range "0" "9") (str.to_re "-") (str.to_re "&") (re.range "0" "9") (re.range "A" "Z") (re.range "a" "z") (str.to_re "_") (str.to_re " ") (str.to_re "\u{9}") (str.to_re "\u{a}") (str.to_re "\u{c}") (str.to_re "\u{d}"))) (re.* (str.to_re ",")))) (re.* (re.++ (str.to_re "DC=") (re.+ (re.union (str.to_re "'") (re.range "0" "9") (str.to_re "-") (str.to_re "&") (re.range "0" "9") (re.range "A" "Z") (re.range "a" "z") (str.to_re "_") (str.to_re " ") (str.to_re "\u{9}") (str.to_re "\u{a}") (str.to_re "\u{c}") (str.to_re "\u{d}"))) (re.* (str.to_re ","))))) (re.++ (re.union ((_ re.loop 1 2) (re.range "0" "9")) (re.++ (str.to_re "1") (re.range "0" "9") (re.range "0" "9")) (re.++ (str.to_re "2") (re.range "0" "4") (re.range "0" "9")) (re.++ (str.to_re "25") (re.range "0" "5"))) (str.to_re ".") (re.union ((_ re.loop 1 2) (re.range "0" "9")) (re.++ (str.to_re "1") (re.range "0" "9") (re.range "0" "9")) (re.++ (str.to_re "2") (re.range "0" "4") (re.range "0" "9")) (re.++ (str.to_re "25") (re.range "0" "5"))) (str.to_re ".") (re.union ((_ re.loop 1 2) (re.range "0" "9")) (re.++ (str.to_re "1") (re.range "0" "9") (re.range "0" "9")) (re.++ (str.to_re "2") (re.range "0" "4") (re.range "0" "9")) (re.++ (str.to_re "25") (re.range "0" "5"))) (str.to_re ".") (re.union ((_ re.loop 1 2) (re.range "0" "9")) (re.++ (str.to_re "1") (re.range "0" "9") (re.range "0" "9")) (re.++ (str.to_re "2") (re.range "0" "4") (re.range "0" "9")) (re.++ (str.to_re "25") (re.range "0" "5"))) (str.to_re "/") ((_ re.loop 2 2) (re.++ (str.to_re "DC=") (re.+ (re.union (str.to_re "'") (re.range "0" "9") (str.to_re "-") (str.to_re "&") (re.range "0" "9") (re.range "A" "Z") (re.range "a" "z") (str.to_re "_") (str.to_re " ") (str.to_re "\u{9}") (str.to_re "\u{a}") (str.to_re "\u{c}") (str.to_re "\u{d}"))) (re.* (str.to_re ",")))) (re.* (re.++ (str.to_re "DC=") (re.+ (re.union (str.to_re "'") (re.range "0" "9") (str.to_re "-") (str.to_re "&") (re.range "0" "9") (re.range "A" "Z") (re.range "a" "z") (str.to_re "_") (str.to_re " ") (str.to_re "\u{9}") (str.to_re "\u{a}") (str.to_re "\u{c}") (str.to_re "\u{d}"))) (re.* (str.to_re ","))))) (re.++ (str.to_re "\u{a}") ((_ re.loop 2 2) (re.++ (str.to_re "DC=") (re.+ (re.union (str.to_re "'") (re.range "0" "9") (str.to_re "-") (str.to_re "&") (re.range "0" "9") (re.range "A" "Z") (re.range "a" "z") (str.to_re "_") (str.to_re " ") (str.to_re "\u{9}") (str.to_re "\u{a}") (str.to_re "\u{c}") (str.to_re "\u{d}"))) (re.* (str.to_re ",")))) (re.* (re.++ (str.to_re "DC=") (re.+ (re.union (str.to_re "'") (re.range "0" "9") (str.to_re "-") (str.to_re "&") (re.range "0" "9") (re.range "A" "Z") (re.range "a" "z") (str.to_re "_") (str.to_re " ") (str.to_re "\u{9}") (str.to_re "\u{a}") (str.to_re "\u{c}") (str.to_re "\u{d}"))) (re.* (str.to_re ",")))))) (re.comp (re.union (re.++ (re.+ (re.++ (re.union (re.range "a" "z") (re.range "A" "Z") (re.range "0" "9")) (re.opt (re.++ ((_ re.loop 0 61) (re.union (re.range "a" "z") (re.range "A" "Z") (re.range "0" "9") (str.to_re "-"))) (re.union (re.range "a" "z") (re.range "A" "Z") (re.range "0" "9")))) (str.to_re "."))) ((_ re.loop 2 6) (re.union (re.range "a" "z") (re.range "A" "Z"))) (str.to_re "/") ((_ re.loop 2 2) (re.++ (str.to_re "DC=") (re.+ (re.union (str.to_re "'") (re.range "0" "9") (str.to_re "-") (str.to_re "&") (re.range "0" "9") (re.range "A" "Z") (re.range "a" "z") (str.to_re "_") (str.to_re " ") (str.to_re "\u{9}") (str.to_re "\u{a}") (str.to_re "\u{c}") (str.to_re "\u{d}"))) (re.* (str.to_re ",")))) (re.* (re.++ (str.to_re "DC=") (re.inter (re.+ (re.union (str.to_re "'") (re.range "0" "9") (str.to_re "-") (str.to_re "&") (re.range "0" "9") (re.range "A" "Z") (re.range "a" "z") (str.to_re "_") (str.to_re " ") (str.to_re "\u{9}") (str.to_re "\u{a}") (str.to_re "\u{c}") (str.to_re "\u{d}"))) ((_ re.loop 0 10) re.allchar)) (re.* (str.to_re ","))))) (re.++ (re.union ((_ re.loop 1 2) (re.range "0" "9")) (re.++ (str.to_re "1") (re.range "0" "9") (re.range "0" "9")) (re.++ (str.to_re "2") (re.range "0" "4") (re.range "0" "9")) (re.++ (str.to_re "25") (re.range "0" "5"))) (str.to_re ".") (re.union ((_ re.loop 1 2) (re.range "0" "9")) (re.++ (str.to_re "1") (re.range "0" "9") (re.range "0" "9")) (re.++ (str.to_re "2") (re.range "0" "4") (re.range "0" "9")) (re.++ (str.to_re "25") (re.range "0" "5"))) (str.to_re ".") (re.union ((_ re.loop 1 2) (re.range "0" "9")) (re.++ (str.to_re "1") (re.range "0" "9") (re.range "0" "9")) (re.++ (str.to_re "2") (re.range "0" "4") (re.range "0" "9")) (re.++ (str.to_re "25") (re.range "0" "5"))) (str.to_re ".") (re.inter (re.union ((_ re.loop 1 2) (re.range "0" "9")) (re.++ (str.to_re "1") (re.range "0" "9") (re.range "0" "9")) (re.++ (str.to_re "2") (re.range "0" "4") (re.range "0" "9")) (re.++ (str.to_re "25") (re.range "0" "5"))) ((_ re.loop 0 10) re.allchar)) (str.to_re "/") ((_ re.loop 2 2) (re.++ (str.to_re "DC=") (re.+ (re.union (str.to_re "'") (re.range "0" "9") (str.to_re "-") (str.to_re "&") (re.range "0" "9") (re.range "A" "Z") (re.range "a" "z") (str.to_re "_") (str.to_re " ") (str.to_re "\u{9}") (str.to_re "\u{a}") (str.to_re "\u{c}") (str.to_re "\u{d}"))) (re.* (str.to_re ",")))) (re.* (re.++ (str.to_re "DC=") (re.+ (re.union (str.to_re "'") (re.range "0" "9") (str.to_re "-") (str.to_re "&") (re.range "0" "9") (re.range "A" "Z") (re.range "a" "z") (str.to_re "_") (str.to_re " ") (str.to_re "\u{9}") (str.to_re "\u{a}") (str.to_re "\u{c}") (str.to_re "\u{d}"))) (re.* (str.to_re ","))))) (re.++ (str.to_re "\u{a}") ((_ re.loop 2 2) (re.++ (str.to_re "DC=") (re.+ (re.union (str.to_re "'") (re.range "0" "9") (str.to_re "-") (str.to_re "&") (re.range "0" "9") (re.range "A" "Z") (re.range "a" "z") (str.to_re "_") (str.to_re " ") (str.to_re "\u{9}") (str.to_re "\u{a}") (str.to_re "\u{c}") (str.to_re "\u{d}"))) (re.* (str.to_re ",")))) (re.* (re.++ (str.to_re "DC=") (re.+ (re.union (str.to_re "'") (re.range "0" "9") (str.to_re "-") (str.to_re "&") (re.range "0" "9") (re.range "A" "Z") (re.range "a" "z") (str.to_re "_") (str.to_re " ") (str.to_re "\u{9}") (str.to_re "\u{a}") (str.to_re "\u{c}") (str.to_re "\u{d}"))) (re.* (str.to_re ",")))))))) (re.inter (re.comp (re.union (re.++ (re.+ (re.++ (re.union (re.range "a" "z") (re.range "A" "Z") (re.range "0" "9")) (re.opt (re.++ ((_ re.loop 0 61) (re.union (re.range "a" "z") (re.range "A" "Z") (re.range "0" "9") (str.to_re "-"))) (re.union (re.range "a" "z") (re.range "A" "Z") (re.range "0" "9")))) (str.to_re "."))) ((_ re.loop 2 6) (re.union (re.range "a" "z") (re.range "A" "Z"))) (str.to_re "/") ((_ re.loop 2 2) (re.++ (str.to_re "DC=") (re.+ (re.union (str.to_re "'") (re.range "0" "9") (str.to_re "-") (str.to_re "&") (re.range "0" "9") (re.range "A" "Z") (re.range "a" "z") (str.to_re "_") (str.to_re " ") (str.to_re "\u{9}") (str.to_re "\u{a}") (str.to_re "\u{c}") (str.to_re "\u{d}"))) (re.* (str.to_re ",")))) (re.* (re.++ (str.to_re "DC=") (re.+ (re.union (str.to_re "'") (re.range "0" "9") (str.to_re "-") (str.to_re "&") (re.range "0" "9") (re.range "A" "Z") (re.range "a" "z") (str.to_re "_") (str.to_re " ") (str.to_re "\u{9}") (str.to_re "\u{a}") (str.to_re "\u{c}") (str.to_re "\u{d}"))) (re.* (str.to_re ","))))) (re.++ (re.union ((_ re.loop 1 2) (re.range "0" "9")) (re.++ (str.to_re "1") (re.range "0" "9") (re.range "0" "9")) (re.++ (str.to_re "2") (re.range "0" "4") (re.range "0" "9")) (re.++ (str.to_re "25") (re.range "0" "5"))) (str.to_re ".") (re.union ((_ re.loop 1 2) (re.range "0" "9")) (re.++ (str.to_re "1") (re.range "0" "9") (re.range "0" "9")) (re.++ (str.to_re "2") (re.range "0" "4") (re.range "0" "9")) (re.++ (str.to_re "25") (re.range "0" "5"))) (str.to_re ".") (re.union ((_ re.loop 1 2) (re.range "0" "9")) (re.++ (str.to_re "1") (re.range "0" "9") (re.range "0" "9")) (re.++ (str.to_re "2") (re.range "0" "4") (re.range "0" "9")) (re.++ (str.to_re "25") (re.range "0" "5"))) (str.to_re ".") (re.union ((_ re.loop 1 2) (re.range "0" "9")) (re.++ (str.to_re "1") (re.range "0" "9") (re.range "0" "9")) (re.++ (str.to_re "2") (re.range "0" "4") (re.range "0" "9")) (re.++ (str.to_re "25") (re.range "0" "5"))) (str.to_re "/") ((_ re.loop 2 2) (re.++ (str.to_re "DC=") (re.+ (re.union (str.to_re "'") (re.range "0" "9") (str.to_re "-") (str.to_re "&") (re.range "0" "9") (re.range "A" "Z") (re.range "a" "z") (str.to_re "_") (str.to_re " ") (str.to_re "\u{9}") (str.to_re "\u{a}") (str.to_re "\u{c}") (str.to_re "\u{d}"))) (re.* (str.to_re ",")))) (re.* (re.++ (str.to_re "DC=") (re.+ (re.union (str.to_re "'") (re.range "0" "9") (str.to_re "-") (str.to_re "&") (re.range "0" "9") (re.range "A" "Z") (re.range "a" "z") (str.to_re "_") (str.to_re " ") (str.to_re "\u{9}") (str.to_re "\u{a}") (str.to_re "\u{c}") (str.to_re "\u{d}"))) (re.* (str.to_re ","))))) (re.++ (str.to_re "\u{a}") ((_ re.loop 2 2) (re.++ (str.to_re "DC=") (re.+ (re.union (str.to_re "'") (re.range "0" "9") (str.to_re "-") (str.to_re "&") (re.range "0" "9") (re.range "A" "Z") (re.range "a" "z") (str.to_re "_") (str.to_re " ") (str.to_re "\u{9}") (str.to_re "\u{a}") (str.to_re "\u{c}") (str.to_re "\u{d}"))) (re.* (str.to_re ",")))) (re.* (re.++ (str.to_re "DC=") (re.+ (re.union (str.to_re "'") (re.range "0" "9") (str.to_re "-") (str.to_re "&") (re.range "0" "9") (re.range "A" "Z") (re.range "a" "z") (str.to_re "_") (str.to_re " ") (str.to_re "\u{9}") (str.to_re "\u{a}") (str.to_re "\u{c}") (str.to_re "\u{d}"))) (re.* (str.to_re ","))))))) (re.union (re.++ (re.+ (re.++ (re.union (re.range "a" "z") (re.range "A" "Z") (re.range "0" "9")) (re.opt (re.++ ((_ re.loop 0 61) (re.union (re.range "a" "z") (re.range "A" "Z") (re.range "0" "9") (str.to_re "-"))) (re.union (re.range "a" "z") (re.range "A" "Z") (re.range "0" "9")))) (str.to_re "."))) ((_ re.loop 2 6) (re.union (re.range "a" "z") (re.range "A" "Z"))) (str.to_re "/") ((_ re.loop 2 2) (re.++ (str.to_re "DC=") (re.+ (re.union (str.to_re "'") (re.range "0" "9") (str.to_re "-") (str.to_re "&") (re.range "0" "9") (re.range "A" "Z") (re.range "a" "z") (str.to_re "_") (str.to_re " ") (str.to_re "\u{9}") (str.to_re "\u{a}") (str.to_re "\u{c}") (str.to_re "\u{d}"))) (re.* (str.to_re ",")))) (re.* (re.++ (str.to_re "DC=") (re.inter (re.+ (re.union (str.to_re "'") (re.range "0" "9") (str.to_re "-") (str.to_re "&") (re.range "0" "9") (re.range "A" "Z") (re.range "a" "z") (str.to_re "_") (str.to_re " ") (str.to_re "\u{9}") (str.to_re "\u{a}") (str.to_re "\u{c}") (str.to_re "\u{d}"))) ((_ re.loop 0 10) re.allchar)) (re.* (str.to_re ","))))) (re.++ (re.union ((_ re.loop 1 2) (re.range "0" "9")) (re.++ (str.to_re "1") (re.range "0" "9") (re.range "0" "9")) (re.++ (str.to_re "2") (re.range "0" "4") (re.range "0" "9")) (re.++ (str.to_re "25") (re.range "0" "5"))) (str.to_re ".") (re.union ((_ re.loop 1 2) (re.range "0" "9")) (re.++ (str.to_re "1") (re.range "0" "9") (re.range "0" "9")) (re.++ (str.to_re "2") (re.range "0" "4") (re.range "0" "9")) (re.++ (str.to_re "25") (re.range "0" "5"))) (str.to_re ".") (re.union ((_ re.loop 1 2) (re.range "0" "9")) (re.++ (str.to_re "1") (re.range "0" "9") (re.range "0" "9")) (re.++ (str.to_re "2") (re.range "0" "4") (re.range "0" "9")) (re.++ (str.to_re "25") (re.range "0" "5"))) (str.to_re ".") (re.inter (re.union ((_ re.loop 1 2) (re.range "0" "9")) (re.++ (str.to_re "1") (re.range "0" "9") (re.range "0" "9")) (re.++ (str.to_re "2") (re.range "0" "4") (re.range "0" "9")) (re.++ (str.to_re "25") (re.range "0" "5"))) ((_ re.loop 0 10) re.allchar)) (str.to_re "/") ((_ re.loop 2 2) (re.++ (str.to_re "DC=") (re.+ (re.union (str.to_re "'") (re.range "0" "9") (str.to_re "-") (str.to_re "&") (re.range "0" "9") (re.range "A" "Z") (re.range "a" "z") (str.to_re "_") (str.to_re " ") (str.to_re "\u{9}") (str.to_re "\u{a}") (str.to_re "\u{c}") (str.to_re "\u{d}"))) (re.* (str.to_re ",")))) (re.* (re.++ (str.to_re "DC=") (re.+ (re.union (str.to_re "'") (re.range "0" "9") (str.to_re "-") (str.to_re "&") (re.range "0" "9") (re.range "A" "Z") (re.range "a" "z") (str.to_re "_") (str.to_re " ") (str.to_re "\u{9}") (str.to_re "\u{a}") (str.to_re "\u{c}") (str.to_re "\u{d}"))) (re.* (str.to_re ","))))) (re.++ (str.to_re "\u{a}") ((_ re.loop 2 2) (re.++ (str.to_re "DC=") (re.+ (re.union (str.to_re "'") (re.range "0" "9") (str.to_re "-") (str.to_re "&") (re.range "0" "9") (re.range "A" "Z") (re.range "a" "z") (str.to_re "_") (str.to_re " ") (str.to_re "\u{9}") (str.to_re "\u{a}") (str.to_re "\u{c}") (str.to_re "\u{d}"))) (re.* (str.to_re ",")))) (re.* (re.++ (str.to_re "DC=") (re.+ (re.union (str.to_re "'") (re.range "0" "9") (str.to_re "-") (str.to_re "&") (re.range "0" "9") (re.range "A" "Z") (re.range "a" "z") (str.to_re "_") (str.to_re " ") (str.to_re "\u{9}") (str.to_re "\u{a}") (str.to_re "\u{c}") (str.to_re "\u{d}"))) (re.* (str.to_re ","))))))))))

(check-sat)
(exit)
